50
1000
239
237
237
235
234
232
231
231
231
228
224
224
221
220
218
217
216
214
212
210
208
208
202
199
198
198
197
193
193
191
189
189
185
184
184
183
181
179
177
176
176
175
174
173
172
171
171
164
162
162
